db/inputs/2328023599891818547329230040313131246.smt2
(set-logic QF_FP)
(declare-const x0 (_ FloatingPoint 8 24))
(declare-const x1 (_ FloatingPoint 8 24))
(declare-const x2 (_ FloatingPoint 8 24))
(declare-const x3 (_ FloatingPoint 8 24))
(declare-const x4 (_ FloatingPoint 8 24))
(declare-const x5 (_ FloatingPoint 8 24))
(declare-const x6 (_ FloatingPoint 8 24))
(declare-const x7 (_ FloatingPoint 8 24))
(declare-const x8 (_ FloatingPoint 8 24))
(declare-const x9 (_ FloatingPoint 8 24))
(declare-const x10 (_ FloatingPoint 8 24))
(declare-const x11 (_ FloatingPoint 8 24))
(assert (fp.geq (fp.sub RNE x10 x9) (fp.neg x1)))
(assert (fp.lt (fp.add RNE x10 x4) (fp.mul RNE x11 x10)))
(assert (fp.eq (fp.div RNE x7 x3) (fp.sub RNE x7 x7)))
(assert (fp.gt (fp.neg x3) (fp.div RNE x6 x8)))
(assert (fp.geq (fp.sub RNE x9 x8) (fp.neg x7)))
(assert (fp.leq (fp.neg x2) (fp.add RNE x11 x3)))
(assert (fp.eq (fp.div RNE x4 x0) (fp.add RNE x10 x10)))
(check-sat)
