db/data/2328023599891818547329230040313131246.z3.out
sat
-------------------
14.490464758
